841.32 0
0 10 8 9 6 2 4 7 3 5 75 0
0 69 66 68 64 61 72 74 62 63 65 67 0
0 43 42 41 40 44 45 46 48 51 50 52 49 47 0
0 20 21 22 24 29 30 28 27 25 26 23 0
0 98 96 95 94 92 93 97 100 99 1 0
0 59 60 58 56 53 54 55 57 0
0 11 12 14 16 15 19 18 17 13 0
0 86 83 82 81 78 79 80 77 73 70 71 76 0
0 34 36 39 38 37 35 31 33 32 0
0 90 87 84 85 88 89 91 0